c 
c U(n,d) graph
c graph gen seed     : 10776
c number of vertices : 60
c max number of edges: 1770
c Euclidean distance : 0.600000
c data structure     : dense
c
c           Graph Stats
c number of vertices  : 60
c nonisolated vertices: 60
c number of edges     : 1137
c edge density        : 0.642373
c max degree          : 56
c avg degree          : 37.90
c min degree          : 16
p col 60 1137
e 1 2
e 1 4
e 1 5
e 1 6
e 1 9
e 1 10
e 1 12
e 1 13
e 1 14
e 1 15
e 1 16
e 1 19
e 1 20
e 1 21
e 1 23
e 1 24
e 1 25
e 1 26
e 1 27
e 1 28
e 1 29
e 1 31
e 1 32
e 1 33
e 1 34
e 1 35
e 1 36
e 1 37
e 1 38
e 1 39
e 1 41
e 1 43
e 1 44
e 1 45
e 1 46
e 1 47
e 1 49
e 1 51
e 1 52
e 1 55
e 1 57
e 1 58
e 1 59
e 2 3
e 2 4
e 2 5
e 2 6
e 2 7
e 2 8
e 2 9
e 2 10
e 2 11
e 2 12
e 2 13
e 2 14
e 2 15
e 2 16
e 2 17
e 2 18
e 2 19
e 2 20
e 2 21
e 2 23
e 2 24
e 2 25
e 2 26
e 2 27
e 2 28
e 2 29
e 2 30
e 2 31
e 2 32
e 2 33
e 2 34
e 2 35
e 2 36
e 2 37
e 2 38
e 2 39
e 2 40
e 2 41
e 2 42
e 2 43
e 2 44
e 2 45
e 2 47
e 2 48
e 2 49
e 2 50
e 2 51
e 2 53
e 2 54
e 2 55
e 2 56
e 2 57
e 2 58
e 2 59
e 2 60
e 3 5
e 3 8
e 3 12
e 3 14
e 3 15
e 3 16
e 3 17
e 3 19
e 3 21
e 3 23
e 3 24
e 3 25
e 3 27
e 3 28
e 3 29
e 3 30
e 3 32
e 3 35
e 3 37
e 3 38
e 3 40
e 3 41
e 3 42
e 3 49
e 3 51
e 3 53
e 3 54
e 3 56
e 3 57
e 3 60
e 4 5
e 4 7
e 4 9
e 4 10
e 4 11
e 4 12
e 4 13
e 4 14
e 4 15
e 4 16
e 4 19
e 4 20
e 4 21
e 4 22
e 4 26
e 4 28
e 4 31
e 4 34
e 4 36
e 4 39
e 4 42
e 4 43
e 4 44
e 4 45
e 4 47
e 4 48
e 4 55
e 4 56
e 4 59
e 5 7
e 5 9
e 5 10
e 5 11
e 5 12
e 5 13
e 5 14
e 5 15
e 5 16
e 5 17
e 5 18
e 5 19
e 5 20
e 5 21
e 5 22
e 5 23
e 5 24
e 5 25
e 5 26
e 5 27
e 5 28
e 5 29
e 5 30
e 5 31
e 5 32
e 5 33
e 5 34
e 5 36
e 5 37
e 5 38
e 5 39
e 5 40
e 5 41
e 5 42
e 5 43
e 5 44
e 5 45
e 5 47
e 5 48
e 5 49
e 5 50
e 5 51
e 5 53
e 5 55
e 5 56
e 5 57
e 5 58
e 5 59
e 6 9
e 6 10
e 6 12
e 6 14
e 6 16
e 6 19
e 6 20
e 6 21
e 6 24
e 6 26
e 6 27
e 6 28
e 6 29
e 6 31
e 6 32
e 6 33
e 6 34
e 6 35
e 6 36
e 6 38
e 6 39
e 6 41
e 6 43
e 6 44
e 6 46
e 6 47
e 6 49
e 6 51
e 6 52
e 6 55
e 6 58
e 7 10
e 7 11
e 7 12
e 7 13
e 7 14
e 7 15
e 7 16
e 7 18
e 7 19
e 7 21
e 7 22
e 7 23
e 7 25
e 7 26
e 7 28
e 7 31
e 7 36
e 7 39
e 7 40
e 7 42
e 7 44
e 7 45
e 7 48
e 7 50
e 7 55
e 7 56
e 7 57
e 7 59
e 8 14
e 8 17
e 8 21
e 8 23
e 8 24
e 8 25
e 8 27
e 8 29
e 8 30
e 8 32
e 8 35
e 8 37
e 8 38
e 8 40
e 8 41
e 8 49
e 8 51
e 8 53
e 8 54
e 8 57
e 8 58
e 8 60
e 9 10
e 9 12
e 9 14
e 9 15
e 9 16
e 9 19
e 9 20
e 9 21
e 9 24
e 9 26
e 9 27
e 9 28
e 9 29
e 9 31
e 9 32
e 9 33
e 9 34
e 9 35
e 9 36
e 9 38
e 9 39
e 9 41
e 9 43
e 9 44
e 9 45
e 9 46
e 9 47
e 9 49
e 9 51
e 9 52
e 9 55
e 9 58
e 9 59
e 10 11
e 10 12
e 10 13
e 10 14
e 10 15
e 10 16
e 10 19
e 10 20
e 10 21
e 10 22
e 10 25
e 10 26
e 10 28
e 10 29
e 10 31
e 10 33
e 10 34
e 10 36
e 10 38
e 10 39
e 10 42
e 10 43
e 10 44
e 10 45
e 10 47
e 10 48
e 10 52
e 10 55
e 10 56
e 10 57
e 10 58
e 10 59
e 11 12
e 11 13
e 11 14
e 11 15
e 11 16
e 11 18
e 11 19
e 11 21
e 11 22
e 11 23
e 11 25
e 11 26
e 11 28
e 11 31
e 11 36
e 11 39
e 11 40
e 11 42
e 11 44
e 11 45
e 11 48
e 11 50
e 11 55
e 11 56
e 11 57
e 11 59
e 12 13
e 12 14
e 12 15
e 12 16
e 12 18
e 12 19
e 12 20
e 12 21
e 12 22
e 12 23
e 12 24
e 12 25
e 12 26
e 12 27
e 12 28
e 12 29
e 12 30
e 12 31
e 12 32
e 12 33
e 12 34
e 12 35
e 12 36
e 12 37
e 12 38
e 12 39
e 12 40
e 12 41
e 12 42
e 12 43
e 12 44
e 12 45
e 12 47
e 12 48
e 12 49
e 12 51
e 12 53
e 12 55
e 12 56
e 12 57
e 12 58
e 12 59
e 13 14
e 13 15
e 13 16
e 13 18
e 13 19
e 13 21
e 13 22
e 13 23
e 13 25
e 13 26
e 13 28
e 13 29
e 13 31
e 13 36
e 13 38
e 13 39
e 13 40
e 13 42
e 13 43
e 13 44
e 13 45
e 13 48
e 13 50
e 13 55
e 13 56
e 13 57
e 13 59
e 14 15
e 14 16
e 14 17
e 14 18
e 14 19
e 14 20
e 14 21
e 14 22
e 14 23
e 14 24
e 14 25
e 14 26
e 14 27
e 14 28
e 14 29
e 14 30
e 14 31
e 14 32
e 14 33
e 14 34
e 14 35
e 14 36
e 14 37
e 14 38
e 14 39
e 14 40
e 14 41
e 14 42
e 14 43
e 14 44
e 14 45
e 14 46
e 14 47
e 14 48
e 14 49
e 14 51
e 14 52
e 14 53
e 14 55
e 14 56
e 14 57
e 14 58
e 14 59
e 15 16
e 15 17
e 15 18
e 15 19
e 15 20
e 15 21
e 15 22
e 15 23
e 15 24
e 15 25
e 15 26
e 15 27
e 15 28
e 15 29
e 15 30
e 15 31
e 15 36
e 15 37
e 15 38
e 15 39
e 15 40
e 15 41
e 15 42
e 15 43
e 15 44
e 15 45
e 15 48
e 15 49
e 15 50
e 15 51
e 15 53
e 15 55
e 15 56
e 15 57
e 15 58
e 15 59
e 16 17
e 16 18
e 16 19
e 16 20
e 16 21
e 16 22
e 16 23
e 16 24
e 16 25
e 16 26
e 16 27
e 16 28
e 16 29
e 16 30
e 16 31
e 16 32
e 16 33
e 16 34
e 16 35
e 16 36
e 16 37
e 16 38
e 16 39
e 16 40
e 16 41
e 16 42
e 16 43
e 16 44
e 16 45
e 16 47
e 16 48
e 16 49
e 16 51
e 16 52
e 16 53
e 16 55
e 16 56
e 16 57
e 16 58
e 16 59
e 17 19
e 17 21
e 17 23
e 17 24
e 17 25
e 17 27
e 17 28
e 17 29
e 17 30
e 17 32
e 17 35
e 17 37
e 17 38
e 17 40
e 17 41
e 17 42
e 17 49
e 17 50
e 17 51
e 17 53
e 17 54
e 17 56
e 17 57
e 17 60
e 18 19
e 18 23
e 18 25
e 18 26
e 18 28
e 18 39
e 18 40
e 18 42
e 18 45
e 18 48
e 18 50
e 18 56
e 18 57
e 18 59
e 19 20
e 19 21
e 19 22
e 19 23
e 19 24
e 19 25
e 19 26
e 19 27
e 19 28
e 19 29
e 19 30
e 19 31
e 19 32
e 19 33
e 19 34
e 19 35
e 19 36
e 19 37
e 19 38
e 19 39
e 19 40
e 19 41
e 19 42
e 19 43
e 19 44
e 19 45
e 19 47
e 19 48
e 19 49
e 19 51
e 19 53
e 19 55
e 19 56
e 19 57
e 19 58
e 19 59
e 20 21
e 20 24
e 20 26
e 20 27
e 20 28
e 20 29
e 20 31
e 20 32
e 20 33
e 20 34
e 20 35
e 20 36
e 20 37
e 20 38
e 20 39
e 20 41
e 20 43
e 20 44
e 20 45
e 20 46
e 20 47
e 20 49
e 20 51
e 20 52
e 20 55
e 20 57
e 20 58
e 20 59
e 21 23
e 21 24
e 21 25
e 21 26
e 21 27
e 21 28
e 21 29
e 21 30
e 21 31
e 21 32
e 21 33
e 21 34
e 21 35
e 21 36
e 21 37
e 21 38
e 21 39
e 21 40
e 21 41
e 21 42
e 21 43
e 21 44
e 21 45
e 21 46
e 21 47
e 21 48
e 21 49
e 21 51
e 21 52
e 21 53
e 21 54
e 21 55
e 21 56
e 21 57
e 21 58
e 21 59
e 21 60
e 22 26
e 22 28
e 22 31
e 22 34
e 22 36
e 22 39
e 22 43
e 22 44
e 22 45
e 22 47
e 22 48
e 22 55
e 22 56
e 22 59
e 23 24
e 23 25
e 23 27
e 23 28
e 23 29
e 23 30
e 23 32
e 23 35
e 23 36
e 23 37
e 23 38
e 23 39
e 23 40
e 23 41
e 23 42
e 23 44
e 23 48
e 23 49
e 23 50
e 23 51
e 23 53
e 23 54
e 23 56
e 23 57
e 23 58
e 23 59
e 23 60
e 24 25
e 24 27
e 24 28
e 24 29
e 24 30
e 24 32
e 24 33
e 24 35
e 24 36
e 24 37
e 24 38
e 24 39
e 24 40
e 24 41
e 24 42
e 24 44
e 24 46
e 24 49
e 24 51
e 24 52
e 24 53
e 24 54
e 24 57
e 24 58
e 24 60
e 25 26
e 25 27
e 25 28
e 25 29
e 25 30
e 25 32
e 25 36
e 25 37
e 25 38
e 25 39
e 25 40
e 25 41
e 25 42
e 25 44
e 25 45
e 25 48
e 25 49
e 25 50
e 25 51
e 25 53
e 25 54
e 25 55
e 25 56
e 25 57
e 25 58
e 25 59
e 25 60
e 26 28
e 26 31
e 26 34
e 26 36
e 26 39
e 26 42
e 26 43
e 26 44
e 26 45
e 26 47
e 26 48
e 26 55
e 26 56
e 26 59
e 27 28
e 27 29
e 27 30
e 27 32
e 27 33
e 27 35
e 27 36
e 27 37
e 27 38
e 27 39
e 27 40
e 27 41
e 27 42
e 27 44
e 27 49
e 27 51
e 27 53
e 27 54
e 27 57
e 27 58
e 27 60
e 28 29
e 28 30
e 28 31
e 28 32
e 28 33
e 28 34
e 28 35
e 28 36
e 28 37
e 28 38
e 28 39
e 28 40
e 28 41
e 28 42
e 28 43
e 28 44
e 28 45
e 28 47
e 28 48
e 28 49
e 28 51
e 28 52
e 28 53
e 28 55
e 28 56
e 28 57
e 28 58
e 28 59
e 29 30
e 29 32
e 29 33
e 29 35
e 29 36
e 29 37
e 29 38
e 29 39
e 29 40
e 29 41
e 29 42
e 29 44
e 29 49
e 29 51
e 29 53
e 29 54
e 29 56
e 29 57
e 29 58
e 29 59
e 29 60
e 30 32
e 30 35
e 30 37
e 30 38
e 30 40
e 30 41
e 30 42
e 30 44
e 30 49
e 30 51
e 30 53
e 30 54
e 30 57
e 30 58
e 30 60
e 31 34
e 31 36
e 31 39
e 31 43
e 31 44
e 31 45
e 31 47
e 31 48
e 31 55
e 31 56
e 31 59
e 32 33
e 32 34
e 32 35
e 32 36
e 32 37
e 32 38
e 32 39
e 32 41
e 32 43
e 32 44
e 32 46
e 32 47
e 32 49
e 32 51
e 32 52
e 32 53
e 32 54
e 32 57
e 32 58
e 32 60
e 33 34
e 33 35
e 33 36
e 33 37
e 33 38
e 33 39
e 33 41
e 33 43
e 33 44
e 33 46
e 33 47
e 33 49
e 33 51
e 33 52
e 33 55
e 33 57
e 33 58
e 34 36
e 34 38
e 34 39
e 34 43
e 34 44
e 34 45
e 34 46
e 34 47
e 34 52
e 34 55
e 34 58
e 34 59
e 35 36
e 35 37
e 35 38
e 35 41
e 35 43
e 35 44
e 35 46
e 35 47
e 35 49
e 35 51
e 35 52
e 35 53
e 35 54
e 35 57
e 35 58
e 35 60
e 36 38
e 36 39
e 36 41
e 36 42
e 36 43
e 36 44
e 36 45
e 36 46
e 36 47
e 36 48
e 36 49
e 36 51
e 36 52
e 36 55
e 36 56
e 36 57
e 36 58
e 36 59
e 37 38
e 37 40
e 37 41
e 37 42
e 37 44
e 37 49
e 37 51
e 37 53
e 37 54
e 37 57
e 37 58
e 37 60
e 38 39
e 38 40
e 38 41
e 38 42
e 38 43
e 38 44
e 38 46
e 38 47
e 38 49
e 38 51
e 38 52
e 38 53
e 38 54
e 38 56
e 38 57
e 38 58
e 38 59
e 38 60
e 39 40
e 39 41
e 39 42
e 39 43
e 39 44
e 39 45
e 39 47
e 39 48
e 39 49
e 39 51
e 39 55
e 39 56
e 39 57
e 39 58
e 39 59
e 40 41
e 40 42
e 40 44
e 40 48
e 40 49
e 40 50
e 40 51
e 40 53
e 40 54
e 40 56
e 40 57
e 40 59
e 40 60
e 41 42
e 41 44
e 41 46
e 41 49
e 41 51
e 41 53
e 41 54
e 41 57
e 41 58
e 41 60
e 42 44
e 42 45
e 42 48
e 42 49
e 42 50
e 42 51
e 42 53
e 42 55
e 42 56
e 42 57
e 42 59
e 43 44
e 43 45
e 43 46
e 43 47
e 43 52
e 43 55
e 43 58
e 43 59
e 44 45
e 44 46
e 44 47
e 44 48
e 44 49
e 44 51
e 44 52
e 44 55
e 44 56
e 44 57
e 44 58
e 44 59
e 45 47
e 45 48
e 45 55
e 45 56
e 45 59
e 46 47
e 46 51
e 46 52
e 46 58
e 47 52
e 47 55
e 47 58
e 47 59
e 48 50
e 48 55
e 48 56
e 48 57
e 48 59
e 49 51
e 49 53
e 49 54
e 49 57
e 49 58
e 49 60
e 50 56
e 50 57
e 50 59
e 51 52
e 51 53
e 51 54
e 51 57
e 51 58
e 51 60
e 52 58
e 53 54
e 53 56
e 53 57
e 53 58
e 53 60
e 54 57
e 54 60
e 55 56
e 55 59
e 56 57
e 56 59
e 57 58
e 57 59
e 57 60
